c Source: TUDataset PTC_MR, graph #123
c Original: n=19, m=20
c Augmented: +10 edges, n=21 -> m=30, circuit_rank=10
c Augmented to satisfy Eulerian condition (no parallel edges)
p sp 21
e 17 19
e 3 5
e 2 3
e 7 8
e 7 17
e 14 16
e 17 18
e 3 4
e 5 7
e 13 14
e 2 17
e 9 13
e 10 12
e 9 10
e 14 15
e 5 6
e 2 13
e 7 9
e 1 2
e 10 11
e 1 3
e 4 5
e 6 8
e 9 20
e 10 20
e 11 12
e 13 21
e 14 21
e 15 16
e 18 19
